c Lingeling SAT Solver
c 
c Version ala b02aa1a04343558c4252b5f4a723be021964f652
c 
c Copyright (C) 2010-2012 Armin Biere JKU Linz Austria.
c All rights reserved.
c 
c released Sat Oct 13 14:05:26 CEST 2012
c compiled Sat Feb 16 02:48:12 EST 2013
c 
c gcc (Debian 4.4.5-8) 4.4.5
c -Wall -O3 -DNLGLOG -DNDEBUG -DNCHKSOL -DNLGLPICOSAT 
c Linux greencar2 2.6.32-5-amd64 x86_64
c 
c reading input file p70.cnf
c no embedded options
c found 'p cnf 228894 705447' header
c read 228894 variables, 705447 clauses, 1466900 literals in 0.0 seconds
c
c feature vars 228894
c feature lits.total 1466900
c feature lits.pos 782317
c feature lits.neg 684583
c feature clauses.total 705447
c feature clauses.unit 85812
c feature clauses.bin 497417
c feature clauses.trn 120818
c feature clauses.lrg 1400
c feature cog.val.min 1
c feature cog.val.avg 101968
c feature cog.val.max 219452
c feature cog.var.min 1
c feature cog.var.avg 114448
c feature cog.var.max 228893
c
c
c --abstime=0
c --acts=2
c --actavgmax=120
c --actstdmin=20
c --actstdmax=80
c --agile=23
c --bias=2
c --block=1
c --blkrtc=0
c --blkclslim=2000
c --blkocclim=2000
c --blkmaxeff=2147483647
c --blkmineff=10000000
c --blkreleff=20
c --card=0
c --cce=3
c --ccemaxeff=100000000
c --ccemineff=5000000
c --ccereleff=3
c --check=0
c --cgrclsr=1
c --cgrmaxority=20
c --cgrmaxeff=8000000
c --cgrmineff=200000
c --cgreleff=1
c --cgrexteq=1
c --cgrextand=1
c --cgrextunits=1
c --cgrextite=1
c --cgrextxor=1
c --cliff=1
c --cliffreleff=8
c --cliffmineff=10000000
c --cliffmaxeff=100000000
c --compact=0
c --decompose=1
c --defragint=10000000
c --defragfree=50
c --elim=1
c --elmrtc=0
c --elmblk=1
c --elmclslim=1000
c --elmocclim=1000
c --elmaxeff=100000000
c --elmineff=5000000
c --elmreleff=10
c --sleeponabort=0
c --exitonabort=0
c --flipping=1
c --flipint=2
c --flipdur=50
c --fliptop=1
c --force=0
c --gauss=1
c --gaussextrall=1
c --gaussmaxor=20
c --gaussexptrn=1
c --gaussmaxeff=50000000
c --gaussmineff=2000000
c --gaussreleff=2
c --gluescale=2
c --gluekeep=0
c --inprocessing=1
c --cintinc=10000
c --irrlim=20
c --lift=1
c --lftmaxeff=20000000
c --lftmineff=500000
c --lftreleff=6
c --lhbr=1
c --lkhd=1
c --clim=-1
c --mocint=1000
c --move=2
c --log=-1
c --otfs=1
c --phase=0
c --phaseneginit=0
c --plain=0
c --probe=1
c --prbasicmaxeff=100000000
c --prbasicmineff=1000000
c --prbasicreleff=10
c --prbasic=1
c --prbasicroundlim=9
c --queuemergelim=10000
c --queuefactor=833
c --queueinc=20
c --rmincpen=4
c --seed=0
c --smallirr=90
c --smallve=1
c --smallvevars=12
c --randec=1
c --randecint=1000
c --redfixed=0
c --redlbound=0
c --redlexpfac=10
c --redldoutfac=0
c --redloutinc=10000
c --redlinit=1000
c --redlinc=1000
c --redinoutinc=100
c --redlmininc=10
c --redlmaxinc=200
c --redlminrel=10
c --redlmaxrel=300
c --redlminabs=500
c --redlmaxabs=1000000
c --reduce=1
c --restart=2
c --restartint=5
c --rstinoutinc=110
c --simplify=1
c --simpdelay=100
c --simpen=4
c --sizepen=1000000
c --sizemaxpen=3
c --sortlits=0
c --syncint=111111
c --termint=122222
c --ternres=1
c --ternresrtc=0
c --trnrmineff=4000000
c --trnrmaxeff=40000000
c --trnreleff=10
c --transred=1
c --trdmineff=100000
c --trdmaxeff=2000000
c --trdreleff=10
c --unhide=1
c --unhdextstamp=1
c --unhdhbr=0
c --unhdmaxeff=20000000
c --unhdmineff=1000000
c --unhdreleff=4
c --unhdlnpr=3
c --unhdroundlim=5
c --verbose=1
c --witness=1
c [limits] no conflict limit
c [limits] simplification delayed by 100 to 100 conflicts
c 
c  seconds         irredundant          redundant clauses agility   height
c          variables clauses conflicts large binary ternary    glue         MB
c 
c *    0.0  124618   518561         0       0      0     0  65  0.0   0.0   42
c [cut-width] 172514, max 271965, min4 108628 at 75%, min10 36743 at 88%
c [decision-order] bias 1, old 1
c [queue-schedule-all-variables]
c s    0.0  124618   518561         0       0      0     0  65  0.0   0.0   42
c [simplification-1] limit hit at 100 conflicts
c [simplification-1] simplification penalty of 4
c [ternres-1] limit 4000000 with penalty 0 = 0 + 0
c [ternres-1] all 124618 free variables schedulable
c [ternres-1] 0 ternary resolvents (0 bin, 0 trn)
c [ternres-1] 8645 variables remain 7% (115973 retained)
c [gauss-1] limit 2000000 penalty 0 = 0 + 0
c [gauss-1] extracted 169420 xors of average arity 2.0
c [gauss-1] connected 338842 occurrences of 102234 variables (average 3.3)
c [gauss-1] limit 2000000 penalty 0 = 0 + 0
c d    0.9   56945   255442       100      99      0     0  74  3.9 396.5   21
c [gauss-1] exported 0 unary, 1 binary and 0 ternary equations
c G    0.9   56945   255442       100      99      0     0  74  3.9 396.5   21
c [basicprobe-1] limit 1000000 penalty 0 = 0 + 0
c [basicprobe-1-0] 4623 probes remain 8% after last round
c [basicprobe-1-0] removed 0 variables, found 3475 hbrs
c p    1.0   56945   255442       100      99   3475     0  74  3.9 396.5   25
c [cgrclsr-1] limit 200000 penalty 0 = 0 + 0
c [cgrclsr-1] all 56945 free variables schedulable
c [cgrclsr-1] fully completed congruence closure
c [lift-1] limit 500000 with penalty 0 = 0 + 0
c [lift-1] using 56945 probes 100%
c [lift-1] 56910 variables remain 100% (35 retained)
c [cliff-1] limit of 10000000 steps penalty 0 = 0 + 0
c [cliff-1] failed 1, lifted 4
c K    1.6   56937   255442       100      99  15634     0  74  3.9 396.5   25
c [unhide-1] limit 1000000 with penalty 0 = 0 + 0
c [unhide-1-1] 0 units, 6 failed, 20766 tauts, 0 hbrs, 106 literals
c u    1.7   56928   234637       100      98  15634     1  74  3.9 396.5   25
c [transred-1] limit 100000 with penalty 0 = 0 + 0
c t    1.7   56928   234631       100      98  15630     1  74  3.9 396.5   25
c [block-1] scheduling all variables this time
c [block-1] scheduled 56928 variables 100%
c [block-1] limit of 10000000 steps penalty 0 = 0 + 0
c [block-1] fully completed blocked clause elimination
c [block-1] transition to [ all 0 rem 0 ] state
c [block-1] eliminated 5000 blocked clauses
c k    1.9   56928   229588       100      98  15630  5001  74  3.9 396.5   21
c [cce-1] scheduling all variables this time
c [cce-1] limit of 10000000 steps penalty 0 = 0 + 0
c [cce-1] incomplete covered clause elimination 50687 not tried 89%
c [cce-1] transition to [ all 1 rem 1 ] state
c [cce-1] eliminated 63 covered clauses
c E    2.4   56925   229525       100      98  26892  5001  74  3.9 396.5   21
c [elim-1] scheduling all variables this time
c [elim-1] scheduled 56925 variables 100%
c [elim-1] limit of 5000000 steps penalty 0 = 0 + 0
c [elim-1] incomplete variable elimination 41689 not tried 73%
c [elim-1] transition to [ all 1 rem 1 ] state
c [elim-1] eliminated 6811 = 12% variables out of 56925
c e    3.3   50114   225422       100      51   8709   647  74  3.9 396.5   21
c [phase-1] phase bias: 1638 positive 17%, 7755 negative 83%
c [simplification-1] removed 74504 variables 59%
c [simplification-1] limit increments divided by 30
c [simplification-1] arithmetic increase of conflict limit interval by 333
c [simplification-1] new irredundant limit 2280784
c [simplification-1] new conflict limit 433
c [simplification-1] simplification penalty reduced to 3
c R    3.5   50114   225422       412     338   8715   665  13  8.0 692.1   25
c [simplification-2] limit hit at 433 conflicts
c [simplification-2] simplification penalty of 3
c [ternres-2] limit 2000000 with penalty 1 = 1 + 0
c [ternres-2] 3488 schedulable variables 7%
c [ternres-2] 3 ternary resolvents (0 bin, 3 trn)
c [ternres-2] fully completed ternary resolution
c T    3.5   50114   225422       433     353   8716   673  11  7.8 609.3   25
c [gauss-2] limit 2000000 penalty 0 = 0 + 0
c [gauss-2] extracted 1128 xors of average arity 3.0
c [gauss-2] connected 3384 occurrences of 1673 variables (average 2.0)
c [gauss-2] limit 2000000 penalty 0 = 0 + 0
c [gauss-2] fully completed
c [gauss-2] exported 0 unary, 0 binary and 0 ternary equations
c G    3.7   50114   225422       433     353   8716   673  11  7.8 609.3   21
c [basicprobe-2] limit 500000 penalty 1 = 1 + 0
c [basicprobe-2-0] 4779 probes remain 10% after last round
c [basicprobe-2-0] removed 0 variables, found 679 hbrs
c p    3.8   50114   225422       433     353   9395   673  11  7.8 609.3   25
c [cgrclsr-2] limit 100000 penalty 1 = 1 + 0
c [cgrclsr-2] all 50114 free variables schedulable
c [cgrclsr-2] fully completed congruence closure
c [lift-2] limit 250000 with penalty 1 = 1 + 0
c [lift-2] using 50081 probes 100%
c [lift-2] 50056 variables remain 100% (58 retained)
c [cliff-2] limit of 10000000 steps penalty 0 = 0 + 0
c [cliff-2] failed 0, lifted 0
c [unhide-2] limit 1000000 with penalty 0 = 0 + 0
c [unhide-2-2] 0 units, 0 failed, 1975 tauts, 0 hbrs, 163 literals
c u    4.4   50114   225405       433     351   8730   668  11  7.8 609.3   25
c [transred-3] limit 100000 with penalty 0 = 0 + 0
c t    4.4   50114   225403       433     351   8725   668  11  7.8 609.3   25
c [block-2] scheduling all variables this time
c [block-2] scheduled 50114 variables 100%
c [block-2] limit of 10000000 steps penalty 0 = 0 + 0
c [block-2] fully completed blocked clause elimination
c [block-2] transition to [ all 0 rem 0 ] state
c [block-2] eliminated 0 blocked clauses
c [cce-2] 46913 variables 94% will be scheduled this time
c [cce-2] limit of 10000000 steps penalty 0 = 0 + 0
c [cce-2] 46232 variables 92% remain to be tried next time
c [cce-2] transition to [ all 0 rem 1 ] state
c [cce-2] eliminated 406 covered clauses
c E    4.9   50114   224997       433     351   9303   668  11  7.8 609.3   21
c [elim-2] 41627 variables 83% will be scheduled this time
c [elim-2] scheduled 41627 variables 83%
c [elim-2] limit of 5000000 steps penalty 0 = 0 + 0
c [elim-2] 31508 variables 63% remain to be tried next time
c [elim-2] transition to [ all 0 rem 1 ] state
c [elim-2] eliminated 1270 = 3% variables out of 50114
c e    5.9   48844   224416       433     342   5450   668  11  7.8 609.3   21
c [phase-2] phase bias: 0 positive 0%, 0 negative 0%
c [simplification-2] removed 1270 variables 2%
c [simplification-2] limit increments divided by 2
c [simplification-2] arithmetic increase of conflict limit interval by 5000
c [simplification-2] new irredundant limit 2280784
c [simplification-2] new conflict limit 5766
c [simplification-2] simplification penalty reduced to 2
c R    6.2   48844   224416       976     792   5470   734   5  7.2 368.5   25
c -    6.4   48844   224416      1259     504   5491   776   2  6.7 311.9   25
c R    6.8   48844   224416      2263    1417   5509   842   7  8.1 304.0   26
c -    7.7   48844   224416      4209    1512   5610  1051   7  7.9 274.0   26
c 
c  seconds         irredundant          redundant clauses agility   height
c          variables clauses conflicts large binary ternary    glue         MB
c 
c R    7.9   48844   224416      5172    2436   5619  1080  10  8.9 273.4   26
c [simplification-3] limit hit at 5771 conflicts
c [simplification-3] simplification penalty of 2
c [ternres-3] limit 4000000 with penalty 0 = 0 + 0
c [ternres-3] all 48844 free variables schedulable
c [ternres-3] 331 ternary resolvents (3 bin, 328 trn)
c [ternres-3] fully completed ternary resolution
c T    8.2   48844   224416      5771    2917   5660  1477   4  8.6 259.9   27
c [gauss-3] limit 1000000 penalty 1 = 1 + 0
c [gauss-3] extracted 558 xors of average arity 3.0
c [gauss-3] connected 1674 occurrences of 1088 variables (average 1.5)
c [gauss-3] limit 1000000 penalty 1 = 1 + 0
c [gauss-3] fully completed
c [gauss-3] exported 0 unary, 0 binary and 0 ternary equations
c G    8.3   48844   224416      5771    2917   5660  1477   4  8.6 259.9   21
c [basicprobe-3] limit 250000 penalty 2 = 2 + 0
c [basicprobe-3-0] 4566 probes remain 9% after last round
c [basicprobe-3-0] removed 0 variables, found 202 hbrs
c p    8.4   48844   224416      5771    2917   5862  1468   4  8.6 259.9   26
c [cgrclsr-3] limit 70342 based on 562741 irredundant literals
c [cgrclsr-3] all 48844 free variables schedulable
c [cgrclsr-3] fully completed congruence closure
c [lift-3] limit 125000 with penalty 2 = 2 + 0
c [lift-3] using 48788 probes 100%
c [lift-3] 48776 variables remain 100% (68 retained)
c [cliff-3] limit of 5000000 steps penalty 1 = 1 + 0
c [cliff-3] failed 0, lifted 0
c [unhide-3] limit 1000000 with penalty 0 = 0 + 0
c [unhide-3-3] 0 units, 0 failed, 1846 tauts, 0 hbrs, 1649 literals
c u    8.9   48844   222598      5771    2898   6394  1451   4  8.6 259.9   26
c [transred-5] limit 581840 with penalty 0 = 0 + 0
c t    9.0   48844   222587      5771    2898   6376  1451   4  8.6 259.9   26
c [block-3] scheduling all variables this time
c [block-3] scheduled 48844 variables 100%
c [block-3] limit of 5000000 steps penalty 1 = 1 + 0
c [block-3] fully completed blocked clause elimination
c [block-3] transition to [ all 0 rem 0 ] state
c [block-3] eliminated 0 blocked clauses
c [cce-3] scheduling all variables this time
c [cce-3] limit of 10000000 steps penalty 0 = 0 + 0
c [cce-3] 44631 variables 91% remain to be tried next time
c [cce-3] transition to [ all 1 rem 1 ] state
c [cce-3] eliminated 355 covered clauses
c E    9.5   48844   222232      5771    2898   6830  1442   4  8.6 259.9   21
c [elim-3] scheduling all variables this time
c [elim-3] scheduled 48844 variables 100%
c [elim-3] limit of 5000000 steps penalty 0 = 0 + 0
c [elim-3] 30689 variables 63% remain to be tried next time
c [elim-3] transition to [ all 1 rem 1 ] state
c [elim-3] eliminated 403 = 1% variables out of 48844
c e   10.5   48441   221863      5771    2886   6242  1437   4  8.6 259.9   21
c [simplification-3] removed 403 variables 0%
c [simplification-3] no reduction of limit increments
c [simplification-3] arithmetic increase of conflict limit interval by 10000
c [simplification-3] new irredundant limit 2280784
c [simplification-3] new conflict limit 21104
c [simplification-3] simplification penalty reduced to 1
c -   11.7   48441   221863      8301    2570   6327  1703   4  8.4 252.5   26
c R   12.8   48441   221863     11620    5682   6364  1855   5  8.4 277.5   26
c -   13.6   48441   221863     13166    3504   6445  1978   6  8.2 268.6   26
c 1   14.8   48441   221863     15928    5900   6560  2204   3  8.0 267.9   26
c 
c  seconds         irredundant          redundant clauses agility   height
c          variables clauses conflicts large binary ternary    glue         MB
c 
c blkd: 3 bces, 5000 removed, 2017542 resolutions, 5561570 steps
c blkd: 5000 blocking literals 1%, 0 pure
c cces: 3 cces, 811 eliminated, 811 ate 100%, 0 abce 0%
c cces: 20728 probed, 1 lifted, 3 failed
c clff: 3 cliffs, 4 lifted, 1 failed
c clff: 13934 decisions, 25016241 steps
c clls: 1 sat, 0 simp, 0 freeze, 0 melt
c clls: 2172347 add, 0 assume,, 0 deref, 0 failed
c clls: 0 cassume, 0 mosat
c coll: 18 gcs, 0 rescored clauses
c cgrs: 3 count, 370355 esteps, 94131 csteps
c cgrs: 0 eqs, 0 units
c cgrs: 0 matched (0 ands 0%, 0 xors 0%, 0 ites 0%)
c cgrs: 0 simplified (0 ands 0%, 0 xors 0%, 0 ites 0%)
c cgrs: 2484 extracted (2119 ands 85%, 365 xors 15%, 0 ites 0%)
c dcps: 4 decompositions, 67673 equivalent 30%
c decs: 335076 decision, 336 random 0.100%
c decs: 75709 flipped 22.595% (in 102 phases)
c elms: 3 elims, 8484 eliminated 4%
c elms: 8484 small 100%, 0 large 0%
c elms: 36996 tried small, 8484 succeeded 23%, 28512 failed 77%
c elms: 0 subsumed, 0 strengthened, 0 blocked
c elms: 482596 copies, 333734 resolutions, 974810 ipos
c elms: 2 subchks, 0 strchks
c frcs: 0 computed, 22.9 - 77.1 average min-cut range
c gaus: 3 extractions, 171106 extracted, 2.0 size, 3 max
c gaus: exported 0 units, 1 binary and 0 ternary equations
c gaus: 0 gc, 10000232 steps, 5000116 extr 50%, 2503009 elim 25%
c glue: 8.0 avg, 2.8 scaled avg
c glue: 2 maxredglue=15 (0%)
c lift: 3 phases, 432 probed (144 level1 33%, 288 level2 67%)
c lift: 0 units, 0 equivalences, 0 implications
c hbrs: 29861 hbrs = 29861 trn 100% + 0 lrg 0%, 24 sub 0%
c lrnd: 15791 clauses, 9380 uips 59%, 29.6 length, 8.0 glue
c ints: 765 luby (105956 steps), 0 inout (0 steps)
c mins: 466966 learned lits, 6% minimized
c move: moved 5811, 811 binary 14%, 5000 ternary 86%
c otfs: str 1039 dyn (954 red, 85 irr) 137 drv 13%, 902 rst 87%
c otfs: sub 5 dyn (5 red, 0 irr)
c phas: 2 computed, 9529 set, 1638 pos (17%), 7891 neg (83%)
c prbs: 3 basic, 2288 probed, 0 failed, 0 lifted
c prps: 41669664 props, 97 props/dec
c prps: 78% srch, 22% simp, 0% lkhd
c psns: 1979951 searches, 281795 hits, 14% hit rate
c queu: 59019 new, 22035 del, 120 maximum priority
c queu: 36970 merged, 35375 collected, 6 gcs
c queu: 16830 deprioritized, 23.2 lines on average
c reds: 4 count, 0 reset, 4 acts 100%, 0 exp 0%
c reds: 4 arithmetic 100%, 4 double 100%
c rmbd: 18 removed, 0 red 0%
c rsts: 710 restarts 93%, 54 skipped 7%
c rsts: 90 kept 12.7% average 36.7%
c simp: 3 count (0 ilim 0%, 0 plim 0%, 3 clim 100%)
c trnr: 3 count, 3 bin, 331 trn, 7878272 steps
c tops: 104296 fixed 46%, 0 iterations
c trds: 6 transitive reductions, 46 removed, 0 failed
c trds: 1297 nodes, 1709 edges, 784746 steps
c unhd: 3 count, 3 rounds, 3534042 steps
c unhd: 0 non-trivial sccs of average size 0.0
c unhd: 0 units, 0 bin, 0 trn, 0 lrg
c unhd: 6 failed, 6 stamp, 0 lits, 0 bin, 0 trn, 0 lrg
c unhd: 24587 tauts, 0 bin 0%, 622 trn 3%, 16 lrg 0%
c unhd: 24587 tauts, 23949 stamp 97%, 2004 red 8%
c unhd: 0 hbrs, 0 trn 0%, 0 lrg 0%, 0 red 0%
c unhd: 1918 strd, 0 bin 0%, 5 trn 0%, 1913 lrg 100%, 1917 red 100%
c vars: 48441 remaining 21% and 180453 removed 79% out of 228894
c vars: 104296 fixed 46%, 8484 eliminated 4%, 67673 equivalent 30%
c vsts: 207228296 visits, 80% srch, 20% simp, 0% lkhd
c vsts: 5.1 search visits per propagation 10415.5 per conflict
c wchs: 15068134 pushed, 5516124 enlarged, 31 defrags
c 
c scaledglue  added       reduced       forcing      resolved     conflicts
c 
c all     14005 100      7990 100    140413 100     33158 100      3366 100
c 
c  0          0   0         0   0         0   0         0   0         0   0 
c  1        105   1        50   1       800   1       189   1         7   0 
c  2       4528  32      2507  31     56226  40      8183  25       576  17 
c  3       5016  36<     2633  33<    64268  46<    14064  42<     1733  51<
c  4       2806  20      1719  22     15911  11      7521  23       813  24 
c  5       1002   7       669   8      2406   2      2242   7       182   5 
c  6        380   3       293   4       594   0       700   2        45   1 
c  7        108   1        73   1       142   0       182   1        10   0 
c  8         34   0        28   0        37   0        42   0         0   0 
c  9         10   0         7   0        10   0        11   0         0   0 
c 10          5   0         3   0         5   0         7   0         0   0 
c 11          2   0         2   0         2   0         2   0         0   0 
c 12          1   0         1   0         1   0         1   0         0   0 
c 13          2   0         1   0         5   0         6   0         0   0 
c 14          4   0         4   0         4   0         7   0         0   0 
c 15          2   0         0   0         2   0         1   0         0   0 
c 
c avg             3.1           3.2           2.8           3.2           3.2
c std             1.2           1.2           0.8           1.1           0.9
c 
c 335076 decisions, 15928 conflicts, 1074.1 conflicts/sec
c 41669664 propagations, 2.8 megaprops/sec
c 14.8 seconds, 48.3 MB
c 
c    0.908   6% analysis
c    0.484   3% block
c    0.068   0% bump
c    0.000   0% card
c    1.236   8% cce
c    0.892   6% cliff
c    0.016   0% cutwidth
c    0.268   2% decide
c    0.000   0% force
c    0.836   6% gc
c    0.308   2% cgrclsr
c    0.420   3% decomp
c    0.240   2% defrag
c    2.924  20% elim
c    1.032   7% gauss
c    0.276   2% lift
c    0.160   1% mincls
c    0.048   0% phase
c    0.112   1% probe
c    0.016   0% reduce
c    0.404   3% restart
c    0.136   1% ternres
c    0.052   0% transred
c    0.360   2% unhide
c ==================================
c    0.016   0% preprocessing     0%
c    8.277  56% inprocessing    100%
c ==================================
c    8.293  56% simplifying
c    0.000   0% lookahead
c    6.528  44% search
c ==================================
c   14.829 100% all
c
s SATISFIABLE
